198 300 33 18 93 9 15 64 41 5 100 63 97 61 84 13 26 3 30 23 37 44 90 100 94 45 50 34 88 45 25 64 94 57 34 86 17 100 1 57 4 1 71 100 13 55 65 90 9 46 12 98 89 53 49 35 49 99 68 89 95 45 52 88 53 85 25 22 84 25 30 87 77 1 39 89 7 3 78 15 100 41 64 89 45 13 75 94 11 94 34 5 38 85 44 43 70 68 64 5 44 93 44 21 93 82 61 51 36 39 18 35 31 81 75 76 93 1 21 55 95 54 59 84 90 2 26 11 21 89 16 65 34 11 37 26 44 97 29 31 87 46 65 18 26 92 45 19 44 17 25 90 22 84 74 11 37 51 22 10 92 89 74 25 99 62 2 42 58 30 72 45 75 88 14 53 31 10 23 75 26 47 64 47 82 89 9 71 40 30 80 83 18 5 7 16 66 60 9 23 